
n_res = 4;
rcap = [29, 27, 568, 600];
rtype = [1, 1, 2, 2];
n_tasks = 100;
modes =  [{1, 2, 3}, {4, 5, 6}, {7, 8, 9}, {10, 11, 12}, {13, 14, 15}, {16, 17, 18}, {19, 20, 21}, {22, 23, 24}, {25, 26, 27}, {28, 29, 30}, {31, 32, 33}, {34, 35, 36}, {37, 38, 39}, {40, 41, 42}, {43, 44, 45}, {46, 47, 48}, {49, 50, 51}, {52, 53, 54}, {55, 56, 57}, {58, 59, 60}, {61, 62, 63}, {64, 65, 66}, {67, 68, 69}, {70, 71, 72}, {73, 74, 75}, {76, 77, 78}, {79, 80, 81}, {82, 83, 84}, {85, 86, 87}, {88, 89, 90}, {91, 92, 93}, {94, 95, 96}, {97, 98, 99}, {100, 101, 102}, {103, 104, 105}, {106, 107, 108}, {109, 110, 111}, {112, 113, 114}, {115, 116, 117}, {118, 119, 120}, {121, 122, 123}, {124, 125, 126}, {127, 128, 129}, {130, 131, 132}, {133, 134, 135}, {136, 137, 138}, {139, 140, 141}, {142, 143, 144}, {145, 146, 147}, {148, 149, 150}, {151, 152, 153}, {154, 155, 156}, {157, 158, 159}, {160, 161, 162}, {163, 164, 165}, {166, 167, 168}, {169, 170, 171}, {172, 173, 174}, {175, 176, 177}, {178, 179, 180}, {181, 182, 183}, {184, 185, 186}, {187, 188, 189}, {190, 191, 192}, {193, 194, 195}, {196, 197, 198}, {199, 200, 201}, {202, 203, 204}, {205, 206, 207}, {208, 209, 210}, {211, 212, 213}, {214, 215, 216}, {217, 218, 219}, {220, 221, 222}, {223, 224, 225}, {226, 227, 228}, {229, 230, 231}, {232, 233, 234}, {235, 236, 237}, {238, 239, 240}, {241, 242, 243}, {244, 245, 246}, {247, 248, 249}, {250, 251, 252}, {253, 254, 255}, {256, 257, 258}, {259, 260, 261}, {262, 263, 264}, {265, 266, 267}, {268, 269, 270}, {271, 272, 273}, {274, 275, 276}, {277, 278, 279}, {280, 281, 282}, {283, 284, 285}, {286, 287, 288}, {289, 290, 291}, {292, 293, 294}, {295, 296, 297}, {298, 299, 300}];
succ =  [{27, 25, 24, 22, 21, 18, 15, 12}, {29, 27, 24, 23, 19, 18, 17, 15}, {23, 19, 18, 15, 8}, {27, 24, 18, 12}, {24, 20, 15, 12}, {37, 30, 28, 24, 12}, {29, 24, 19, 15}, {43, 33, 32, 30, 27, 25, 24}, {41, 37, 32, 30, 28, 24, 19}, {19, 15}, {43, 26, 15}, {41, 32, 29, 23, 19}, {43, 38, 30, 28, 21}, {43, 38, 37, 33, 28, 25}, {41, 37, 33, 32, 31, 30, 28}, {43, 37, 33, 28, 25}, {45, 39, 38, 32, 28, 25}, {43, 41, 36, 30, 26}, {43, 36, 33, 26}, {45, 39, 37, 36, 31, 30, 28}, {52, 41, 35, 33, 32, 31}, {48, 45, 41, 37, 35, 32}, {52, 36, 35, 34, 33}, {45, 42, 39, 38, 31}, {52, 41, 36, 35, 31}, {45, 38, 35, 31}, {45, 37, 36, 28}, {52, 48, 46, 40, 35}, {52, 42, 36, 34}, {52, 50, 48, 46, 35}, {53, 48, 40, 34}, {36, 34}, {61, 54, 53, 45, 39}, {58, 56, 55, 50, 49, 46, 44}, {58, 55, 53, 49, 44, 42}, {56, 53, 47, 40}, {58, 55, 54, 52, 46}, {66, 65, 60, 58, 55, 52, 51, 50}, {58, 55, 48, 47}, {60, 58, 55, 51, 50, 49}, {65, 62, 61, 60, 59, 58, 55, 54, 51}, {67, 62, 56, 54, 47}, {67, 65, 61, 51, 50}, {67, 63, 61, 47}, {69, 58, 57, 55, 49}, {67, 63, 47}, {66, 65, 60, 59, 51}, {70, 69, 68, 67, 62, 57, 56}, {70, 68, 67, 65, 63, 62, 59}, {69, 62, 59, 54}, {74, 72, 70, 69, 68, 57}, {70, 69, 68, 67, 64, 62}, {68, 66, 64, 63}, {68, 63, 57}, {100, 88, 74, 72, 71, 64}, {88, 64, 63}, {100, 88, 85, 71, 64}, {88, 81, 77, 76, 74, 73, 68}, {88, 85, 71, 64}, {88, 85, 74, 64}, {81, 76, 72, 66}, {100, 85, 82, 77, 76, 74, 71}, {100, 81, 75, 72, 71}, {84, 81, 79, 78, 77, 76, 75, 73}, {100, 88, 86, 84, 81, 79, 75, 72}, {100, 91, 88, 87, 85, 75, 71}, {100, 88, 84, 83, 78, 77, 73}, {99, 98, 86, 85, 84, 83, 79, 78, 75}, {99, 88, 87, 86, 84, 83, 75}, {100, 98, 97, 89, 86, 85, 84, 83, 78}, {99, 98, 86, 84, 83, 79, 78}, {99, 97, 91, 90, 89, 87, 85, 83}, {99, 98, 97, 86, 82, 80}, {97, 96, 95, 90, 89, 84, 83}, {97, 82, 80}, {98, 83, 80}, {97, 96, 95, 91, 87}, {96, 95, 93, 92, 90}, {97, 95, 94, 92, 89}, {95, 92, 90, 89}, {95, 94, 92, 89}, {96, 94, 93, 92}, {94, 93, 92}, {94, 93, 92}, {96, 95, 92}, {93, 92}, {98, 92}, {97, 92}, {93}, {94}, {93}, {}, {}, {}, {}, {}, {}, {}, {}, {}];
n_opt = 300;
dur = [2, 9, 10, 1, 7, 10, 3, 6, 9, 3, 8, 9, 2, 10, 10, 4, 5, 6, 1, 1, 3, 4, 9, 10, 1, 7, 8, 4, 6, 8, 5, 6, 8, 2, 5, 10, 3, 8, 9, 3, 5, 6, 1, 2, 3, 5, 5, 9, 4, 5, 6, 1, 4, 7, 2, 6, 10, 3, 8, 9, 5, 6, 8, 6, 8, 9, 3, 6, 8, 3, 6, 10, 2, 8, 9, 3, 5, 10, 3, 4, 10, 1, 2, 6, 5, 6, 10, 4, 4, 10, 3, 8, 9, 3, 9, 10, 4, 9, 10, 3, 7, 10, 5, 6, 8, 4, 8, 9, 7, 10, 10, 4, 7, 7, 3, 4, 7, 5, 7, 9, 1, 1, 5, 6, 7, 9, 1, 7, 9, 1, 1, 10, 1, 2, 6, 6, 7, 9, 4, 4, 5, 2, 4, 10, 6, 6, 10, 7, 7, 9, 4, 8, 8, 1, 6, 8, 2, 6, 9, 1, 5, 5, 3, 7, 7, 3, 5, 10, 2, 3, 4, 3, 3, 7, 1, 3, 7, 2, 4, 5, 4, 6, 9, 4, 4, 5, 6, 8, 9, 3, 5, 6, 1, 3, 8, 3, 3, 4, 8, 8, 9, 5, 6, 9, 6, 6, 7, 2, 5, 9, 4, 5, 10, 2, 3, 9, 4, 8, 10, 4, 6, 10, 3, 3, 8, 2, 3, 8, 1, 5, 8, 2, 8, 8, 1, 3, 6, 1, 3, 8, 1, 6, 10, 1, 2, 3, 2, 3, 6, 1, 6, 9, 2, 6, 8, 4, 7, 9, 2, 6, 6, 3, 4, 7, 3, 4, 10, 1, 2, 9, 4, 6, 9, 4, 4, 8, 1, 4, 9, 5, 6, 8, 4, 8, 9, 1, 2, 7, 1, 3, 5, 2, 5, 10, 4, 6, 8, 1, 4, 5];
rreq = [|4, 0, 0, 0, 0, 0, 4, 0, 2, 0, 3, 1, 5, 4, 0, 4, 4, 4, 0, 1, 0, 4, 4, 0, 3, 0, 3, 0, 0, 0, 0, 2, 2, 0, 4, 4, 5, 3, 2, 0, 2, 2, 2, 2, 0, 0, 4, 4, 2, 2, 2, 0, 1, 1, 0, 2, 0, 0, 0, 1, 0, 2, 2, 3, 2, 2, 3, 0, 0, 0, 4, 0, 0, 0, 0, 2, 2, 2, 1, 1, 0, 2, 0, 0, 0, 0, 2, 0, 1, 1, 5, 4, 4, 3, 0, 0, 5, 2, 0, 4, 3, 0, 3, 2, 2, 0, 2, 2, 4, 3, 0, 0, 3, 0, 0, 0, 0, 3, 2, 2, 3, 0, 1, 0, 0, 2, 0, 0, 2, 4, 0, 0, 1, 1, 1, 5, 0, 0, 0, 4, 4, 0, 0, 0, 3, 0, 1, 0, 3, 3, 0, 0, 2, 5, 0, 0, 4, 0, 0, 0, 4, 0, 0, 0, 1, 0, 0, 4, 0, 0, 3, 0, 2, 2, 0, 0, 0, 0, 1, 1, 2, 2, 0, 1, 0, 1, 0, 0, 0, 2, 0, 2, 4, 3, 2, 0, 4, 0, 1, 0, 0, 2, 0, 0, 5, 0, 0, 0, 0, 0, 0, 1, 0, 0, 0, 0, 0, 2, 2, 0, 0, 2, 0, 4, 0, 3, 3, 0, 5, 0, 0, 0, 0, 1, 5, 0, 0, 1, 0, 0, 0, 3, 3, 1, 1, 0, 0, 5, 5, 0, 0, 2, 0, 0, 0, 5, 3, 0, 0, 3, 0, 3, 3, 0, 5, 2, 0, 0, 4, 2, 0, 4, 4, 0, 4, 4, 0, 0, 0, 0, 0, 2, 0, 0, 0, 3, 3, 3, 3, 0, 0, 4, 3, 0, 0, 0, 3, 2, 2, 2
 |0, 3, 3, 4, 3, 3, 0, 1, 0, 5, 0, 0, 0, 0, 3, 0, 0, 0, 2, 0, 1, 0, 0, 2, 0, 4, 0, 3, 3, 1, 4, 0, 0, 2, 0, 0, 0, 0, 0, 3, 0, 0, 0, 0, 1, 3, 0, 0, 0, 0, 0, 4, 0, 0, 3, 0, 2, 4, 3, 0, 4, 0, 0, 0, 0, 0, 0, 1, 1, 4, 0, 4, 2, 1, 1, 0, 0, 0, 0, 0, 4, 0, 2, 1, 1, 1, 0, 1, 0, 0, 0, 0, 0, 0, 2, 1, 0, 0, 2, 0, 0, 2, 0, 0, 0, 5, 0, 0, 0, 0, 5, 3, 0, 2, 1, 1, 1, 0, 0, 0, 0, 3, 0, 2, 1, 0, 4, 4, 0, 0, 3, 3, 0, 0, 0, 0, 3, 2, 4, 0, 0, 5, 4, 4, 0, 2, 0, 4, 0, 0, 1, 1, 0, 0, 1, 1, 0, 2, 1, 2, 0, 2, 1, 1, 0, 4, 4, 0, 5, 4, 0, 5, 0, 0, 3, 3, 3, 3, 0, 0, 0, 0, 1, 0, 5, 0, 3, 3, 3, 0, 1, 0, 0, 0, 0, 4, 0, 2, 0, 2, 2, 0, 3, 2, 0, 2, 2, 4, 4, 4, 4, 0, 2, 5, 4, 4, 2, 0, 0, 4, 4, 0, 3, 0, 3, 0, 0, 1, 0, 3, 3, 2, 1, 0, 0, 3, 3, 0, 1, 1, 2, 0, 0, 0, 0, 2, 4, 0, 0, 1, 1, 0, 4, 3, 3, 0, 0, 2, 5, 0, 1, 0, 0, 2, 0, 0, 3, 4, 0, 0, 4, 0, 0, 4, 0, 0, 1, 1, 1, 3, 3, 0, 5, 5, 5, 0, 0, 0, 0, 3, 3, 0, 0, 1, 2, 1, 0, 0, 0, 0
 |4, 3, 1, 1, 1, 1, 9, 8, 4, 3, 3, 3, 5, 5, 4, 8, 5, 4, 9, 9, 9, 4, 4, 3, 4, 4, 4, 4, 2, 2, 8, 7, 7, 3, 3, 2, 5, 3, 2, 10, 9, 8, 5, 4, 3, 5, 3, 1, 7, 3, 1, 5, 4, 3, 2, 2, 2, 7, 5, 4, 8, 7, 4, 8, 7, 7, 10, 10, 10, 8, 6, 4, 8, 7, 7, 2, 2, 2, 4, 4, 4, 1, 1, 1, 7, 3, 2, 10, 8, 7, 7, 4, 3, 9, 8, 6, 7, 6, 5, 10, 6, 5, 8, 7, 4, 3, 2, 2, 6, 5, 5, 2, 2, 2, 10, 4, 3, 5, 3, 1, 7, 7, 7, 5, 5, 3, 10, 9, 8, 3, 1, 1, 8, 6, 4, 5, 5, 2, 4, 3, 3, 7, 7, 4, 10, 9, 9, 6, 4, 3, 8, 5, 5, 6, 5, 5, 8, 5, 4, 6, 6, 6, 5, 3, 3, 8, 7, 5, 4, 4, 4, 2, 2, 2, 9, 8, 7, 5, 5, 3, 5, 5, 2, 5, 5, 5, 2, 2, 2, 7, 5, 5, 3, 2, 2, 5, 5, 4, 6, 4, 3, 8, 8, 8, 8, 8, 6, 6, 4, 2, 4, 3, 1, 7, 7, 7, 8, 8, 8, 9, 7, 7, 7, 5, 5, 5, 4, 4, 3, 2, 2, 9, 8, 7, 8, 8, 8, 8, 8, 8, 5, 5, 5, 5, 3, 1, 5, 4, 1, 8, 8, 6, 4, 4, 2, 9, 7, 7, 9, 9, 8, 6, 2, 1, 5, 5, 1, 10, 9, 9, 4, 2, 1, 9, 8, 8, 6, 5, 3, 9, 9, 9, 3, 2, 1, 4, 2, 2, 8, 5, 5, 7, 6, 4, 8, 8, 5, 5, 5, 3
 |7, 5, 3, 6, 5, 2, 7, 6, 6, 9, 7, 7, 6, 5, 3, 10, 8, 6, 4, 4, 4, 5, 4, 4, 4, 2, 2, 7, 5, 3, 5, 5, 3, 6, 5, 5, 7, 5, 4, 10, 9, 8, 7, 6, 6, 7, 7, 6, 10, 7, 4, 8, 6, 5, 9, 8, 6, 5, 3, 3, 3, 1, 1, 3, 3, 2, 7, 4, 2, 5, 4, 3, 8, 5, 2, 6, 5, 4, 8, 7, 5, 5, 3, 1, 7, 5, 5, 9, 7, 5, 7, 7, 6, 5, 3, 1, 7, 5, 2, 8, 4, 3, 7, 6, 4, 1, 2, 1, 4, 4, 4, 4, 2, 2, 6, 6, 5, 6, 4, 4, 7, 6, 6, 5, 5, 5, 7, 5, 1, 1, 2, 1, 7, 3, 1, 5, 3, 3, 9, 8, 7, 7, 6, 5, 4, 3, 3, 4, 4, 3, 5, 5, 5, 9, 9, 7, 3, 2, 2, 6, 5, 3, 6, 4, 3, 7, 4, 1, 9, 7, 6, 9, 9, 7, 3, 3, 3, 9, 6, 4, 4, 3, 2, 9, 5, 5, 5, 4, 3, 8, 7, 6, 9, 7, 6, 9, 8, 8, 7, 4, 3, 9, 9, 8, 7, 4, 2, 7, 4, 4, 9, 4, 3, 6, 6, 5, 8, 6, 4, 7, 4, 3, 6, 6, 6, 6, 6, 2, 4, 3, 2, 8, 8, 6, 7, 5, 4, 9, 9, 8, 8, 8, 7, 4, 4, 4, 9, 8, 8, 4, 3, 3, 4, 2, 2, 7, 6, 6, 5, 5, 2, 6, 5, 5, 5, 4, 4, 6, 6, 4, 6, 4, 4, 10, 9, 8, 4, 4, 4, 9, 8, 8, 7, 5, 2, 9, 4, 3, 9, 9, 8, 7, 4, 1, 10, 9, 8, 9, 8, 9|];